multiobj/instances/uniform/Ter.5.2.0.80.3.in
5 2
0 1 862 105 5 
1 0 100 377 177 
862 100 0 804 728 
105 377 804 0 463 
5 177 728 463 0 
0 320 700 745 295 
320 0 156 590 662 
700 156 0 15 306 
745 590 15 0 51 
295 662 306 51 0 
0 372 715 864 184 
372 0 229 608 651 
715 229 0 122 474 
864 608 122 0 8 
184 651 474 8 0 
