multiobj/solutions/Ter.5.2.0.80.3.out
2 2
1 0 2 4 3 
1601778 2073154 
0 1 3 4 2 
1702748 1881660 
